41
1 0 4
2 0 19
2 1 4
3 0 8
3 1 19
3 2 15
4 0 30
4 1 1
4 2 11
4 3 9
5 0 12
5 1 21
5 2 11
5 3 1
5 4 11
6 0 2
6 1 26
6 2 9
6 3 32
6 4 20
6 5 2
7 0 9
7 1 8
7 2 22
7 3 19
7 4 23
7 5 32
7 6 23
8 0 12
8 1 20
8 2 24
8 3 22
8 4 26
8 5 30
8 6 28
8 7 11
9 0 8
9 1 26
9 2 15
9 3 8
9 4 21
9 5 23
9 6 30
9 7 10
9 8 26
10 0 10
10 1 5
10 2 21
10 3 8
10 4 22
10 5 11
10 6 4
10 7 27
10 8 30
10 9 30
11 0 10
11 1 29
11 2 16
11 3 27
11 4 9
11 5 16
11 6 2
11 7 2
11 8 9
11 9 8
11 10 29
12 0 14
12 1 3
12 2 13
12 3 7
12 4 8
12 5 22
12 6 26
12 7 10
12 8 20
12 9 22
12 10 7
12 11 2
13 0 6
13 1 13
13 2 8
13 3 1
13 4 13
13 5 18
13 6 17
13 7 29
13 8 4
13 9 13
13 10 9
13 11 13
13 12 7
14 0 1
14 1 2
14 2 19
14 3 11
14 4 21
14 5 8
14 6 13
14 7 16
14 8 12
14 9 12
14 10 29
14 11 17
14 12 23
14 13 7
15 0 5
15 1 28
15 2 5
15 3 30
15 4 10
15 5 17
15 6 20
15 7 24
15 8 28
15 9 12
15 10 29
15 11 15
15 12 9
15 13 23
15 14 21
16 0 10
16 1 22
16 2 8
16 3 31
16 4 21
16 5 28
16 6 17
16 7 13
16 8 12
16 9 5
16 10 16
16 11 31
16 12 17
16 13 28
16 14 32
16 15 19
17 0 2
17 1 12
17 2 8
17 3 5
17 4 26
17 5 16
17 6 11
17 7 12
17 8 11
17 9 25
17 10 25
17 11 17
17 12 30
17 13 6
17 14 12
17 15 7
17 16 4
18 0 27
18 1 19
18 2 31
18 3 11
18 4 5
18 5 5
18 6 11
18 7 22
18 8 4
18 9 21
18 10 27
18 11 3
18 12 12
18 13 17
18 14 23
18 15 29
18 16 10
18 17 4
19 0 22
19 1 32
19 2 24
19 3 18
19 4 22
19 5 1
19 6 23
19 7 6
19 8 23
19 9 3
19 10 30
19 11 8
19 12 4
19 13 8
19 14 25
19 15 3
19 16 30
19 17 11
19 18 18
20 0 29
20 1 1
20 2 17
20 3 27
20 4 20
20 5 8
20 6 31
20 7 32
20 8 26
20 9 32
20 10 20
20 11 31
20 12 20
20 13 15
20 14 26
20 15 6
20 16 27
20 17 29
20 18 1
20 19 9
21 0 32
21 1 22
21 2 19
21 3 14
21 4 27
21 5 14
21 6 10
21 7 3
21 8 22
21 9 4
21 10 31
21 11 10
21 12 14
21 13 29
21 14 14
21 15 17
21 16 7
21 17 10
21 18 15
21 19 31
21 20 10
22 0 2
22 1 3
22 2 5
22 3 6
22 4 6
22 5 12
22 6 6
22 7 4
22 8 29
22 9 16
22 10 31
22 11 7
22 12 2
22 13 12
22 14 15
22 15 25
22 16 20
22 17 29
22 18 11
22 19 5
22 20 19
22 21 7
23 0 31
23 1 9
23 2 20
23 3 22
23 4 16
23 5 12
23 6 32
23 7 7
23 8 20
23 9 32
23 10 17
23 11 2
23 12 25
23 13 16
23 14 29
23 15 18
23 16 21
23 17 21
23 18 13
23 19 12
23 20 15
23 21 10
23 22 5
24 0 17
24 1 27
24 2 18
24 3 27
24 4 11
24 5 14
24 6 26
24 7 6
24 8 22
24 9 28
24 10 15
24 11 10
24 12 10
24 13 15
24 14 24
24 15 20
24 16 24
24 17 13
24 18 1
24 19 12
24 20 26
24 21 8
24 22 10
24 23 7
25 0 20
25 1 11
25 2 17
25 3 9
25 4 6
25 5 31
25 6 28
25 7 1
25 8 2
25 9 26
25 10 8
25 11 5
25 12 12
25 13 24
25 14 12
25 15 2
25 16 8
25 17 8
25 18 15
25 19 26
25 20 23
25 21 22
25 22 20
25 23 1
25 24 12
26 0 12
26 1 23
26 2 3
26 3 1
26 4 19
26 5 32
26 6 21
26 7 3
26 8 3
26 9 21
26 10 23
26 11 23
26 12 15
26 13 16
26 14 4
26 15 19
26 16 8
26 17 16
26 18 28
26 19 2
26 20 19
26 21 24
26 22 28
26 23 31
26 24 20
26 25 27
27 0 4
27 1 19
27 2 11
27 3 18
27 4 27
27 5 2
27 6 13
27 7 4
27 8 4
27 9 19
27 10 27
27 11 21
27 12 26
27 13 15
27 14 4
27 15 15
27 16 23
27 17 29
27 18 29
27 19 18
27 20 5
27 21 9
27 22 2
27 23 1
27 24 25
27 25 16
27 26 8
28 0 24
28 1 3
28 2 26
28 3 32
28 4 32
28 5 14
28 6 17
28 7 26
28 8 12
28 9 29
28 10 32
28 11 14
28 12 31
28 13 30
28 14 10
28 15 8
28 16 19
28 17 24
28 18 1
28 19 11
28 20 21
28 21 4
28 22 18
28 23 21
28 24 27
28 25 24
28 26 14
28 27 12
29 0 23
29 1 16
29 2 20
29 3 18
29 4 32
29 5 5
29 6 11
29 7 6
29 8 6
29 9 21
29 10 31
29 11 31
29 12 22
29 13 10
29 14 20
29 15 25
29 16 10
29 17 17
29 18 21
29 19 20
29 20 8
29 21 9
29 22 23
29 23 19
29 24 3
29 25 3
29 26 5
29 27 20
29 28 20
30 0 15
30 1 13
30 2 24
30 3 3
30 4 20
30 5 32
30 6 30
30 7 15
30 8 32
30 9 22
30 10 5
30 11 1
30 12 15
30 13 29
30 14 12
30 15 29
30 16 30
30 17 6
30 18 14
30 19 14
30 20 18
30 21 22
30 22 21
30 23 2
30 24 4
30 25 22
30 26 30
30 27 14
30 28 10
30 29 20
31 0 21
31 1 3
31 2 6
31 3 12
31 4 21
31 5 11
31 6 7
31 7 18
31 8 24
31 9 19
31 10 3
31 11 5
31 12 6
31 13 14
31 14 27
31 15 21
31 16 21
31 17 29
31 18 18
31 19 22
31 20 10
31 21 19
31 22 23
31 23 23
31 24 1
31 25 32
31 26 12
31 27 11
31 28 30
31 29 1
31 30 8
32 0 4
32 1 23
32 2 15
32 3 15
32 4 1
32 5 19
32 6 31
32 7 28
32 8 14
32 9 22
32 10 24
32 11 27
32 12 2
32 13 7
32 14 13
32 15 5
32 16 21
32 17 24
32 18 25
32 19 7
32 20 17
32 21 19
32 22 24
32 23 28
32 24 4
32 25 29
32 26 19
32 27 19
32 28 30
32 29 31
32 30 20
32 31 15
33 0 26
33 1 8
33 2 16
33 3 21
33 4 18
33 5 12
33 6 18
33 7 4
33 8 22
33 9 28
33 10 8
33 11 27
33 12 20
33 13 3
33 14 21
33 15 14
33 16 8
33 17 6
33 18 23
33 19 14
33 20 14
33 21 29
33 22 11
33 23 17
33 24 3
33 25 32
33 26 19
33 27 7
33 28 15
33 29 16
33 30 8
33 31 29
33 32 21
34 0 14
34 1 14
34 2 8
34 3 4
34 4 18
34 5 21
34 6 24
34 7 5
34 8 10
34 9 31
34 10 6
34 11 16
34 12 29
34 13 19
34 14 27
34 15 16
34 16 11
34 17 23
34 18 17
34 19 4
34 20 22
34 21 6
34 22 32
34 23 17
34 24 3
34 25 24
34 26 26
34 27 12
34 28 10
34 29 26
34 30 5
34 31 8
34 32 15
34 33 23
35 0 8
35 1 29
35 2 17
35 3 17
35 4 29
35 5 5
35 6 32
35 7 7
35 8 23
35 9 28
35 10 8
35 11 32
35 12 23
35 13 28
35 14 24
35 15 13
35 16 32
35 17 5
35 18 13
35 19 5
35 20 22
35 21 22
35 22 3
35 23 21
35 24 10
35 25 12
35 26 27
35 27 5
35 28 23
35 29 14
35 30 26
35 31 27
35 32 11
35 33 24
35 34 31
36 0 26
36 1 18
36 2 11
36 3 12
36 4 18
36 5 9
36 6 30
36 7 15
36 8 25
36 9 3
36 10 4
36 11 15
36 12 24
36 13 17
36 14 21
36 15 30
36 16 31
36 17 14
36 18 32
36 19 15
36 20 14
36 21 11
36 22 7
36 23 14
36 24 16
36 25 13
36 26 9
36 27 18
36 28 1
36 29 6
36 30 2
36 31 31
36 32 17
36 33 24
36 34 14
36 35 17
37 0 14
37 1 4
37 2 30
37 3 32
37 4 28
37 5 25
37 6 32
37 7 4
37 8 29
37 9 18
37 10 3
37 11 24
37 12 31
37 13 23
37 14 30
37 15 15
37 16 20
37 17 15
37 18 15
37 19 20
37 20 19
37 21 12
37 22 23
37 23 20
37 24 2
37 25 25
37 26 13
37 27 13
37 28 19
37 29 23
37 30 2
37 31 13
37 32 4
37 33 32
37 34 24
37 35 18
37 36 28
38 0 24
38 1 4
38 2 15
38 3 1
38 4 15
38 5 7
38 6 6
38 7 32
38 8 32
38 9 22
38 10 12
38 11 29
38 12 19
38 13 10
38 14 14
38 15 4
38 16 22
38 17 13
38 18 1
38 19 3
38 20 20
38 21 16
38 22 8
38 23 27
38 24 14
38 25 12
38 26 7
38 27 13
38 28 19
38 29 24
38 30 16
38 31 28
38 32 11
38 33 21
38 34 15
38 35 31
38 36 24
38 37 18
39 0 28
39 1 32
39 2 30
39 3 30
39 4 27
39 5 27
39 6 32
39 7 9
39 8 22
39 9 27
39 10 13
39 11 17
39 12 9
39 13 11
39 14 4
39 15 25
39 16 24
39 17 21
39 18 21
39 19 4
39 20 21
39 21 12
39 22 26
39 23 20
39 24 5
39 25 11
39 26 22
39 27 5
39 28 21
39 29 3
39 30 14
39 31 17
39 32 25
39 33 32
39 34 24
39 35 25
39 36 6
39 37 25
39 38 28
40 0 4
40 1 5
40 2 1
40 3 29
40 4 13
40 5 17
40 6 2
40 7 23
40 8 13
40 9 25
40 10 27
40 11 10
40 12 4
40 13 6
40 14 8
40 15 28
40 16 3
40 17 29
40 18 24
40 19 26
40 20 9
40 21 14
40 22 2
40 23 11
40 24 28
40 25 24
40 26 24
40 27 15
40 28 10
40 29 20
40 30 16
40 31 15
40 32 16
40 33 32
40 34 19
40 35 9
40 36 18
40 37 30
40 38 2
40 39 12
